
  20    0


   0  11 2 3 4 5 6 7 8 9 17 18 19 
  10   4 16 12 11 10 
   9   3 15 12 10 
  10   3 14 11 10 
   7   1 12 
   1   1 13 
   9   1 11 
   8   1 10 
   2   1 10 
   3   1 20
   1   1 20
   7   1 20
   7   1 20
   8   1 20
   4   1 20
  10   1 20
   9   1 20
   1   1 20
   7   1 20
   0   0 
